<number of tasks>
50

<cycle time>
1000

<order strength>
0.598


<task times>
1 425
2 494
3 88
4 99
5 398
6 324
7 295
8 408
9 84
10 76
11 110
12 269
13 228
14 61
15 187
16 60
17 150
18 642
19 238
20 382
21 154
22 156
23 159
24 261
25 531
26 462
27 244
28 222
29 215
30 567
31 83
32 582
33 149
34 77
35 475
36 490
37 43
38 110
39 314
40 285
41 275
42 293
43 156
44 494
45 372
46 406
47 498
48 80
49 64
50 400

<precedence relations>
1,17
2,14
3,7
3,9
3,10
4,6
4,8
4,23
5,8
5,11
6,17
7,17
8,14
9,14
10,14
11,12
11,13
11,15
11,16
12,17
13,17
14,17
14,18
14,19
14,20
14,21
14,22
15,23
15,29
15,30
16,23
16,30
17,24
17,25
17,26
17,27
17,28
19,29
19,30
23,33
26,33
27,34
28,31
28,32
29,35
30,32
31,42
32,35
33,34
33,35
34,42
35,36
35,37
35,38
36,42
37,39
37,41
38,40
39,42
40,42
41,43
41,44
41,45
42,46
42,47
42,48
42,49
42,50

<end>
